 # Version information for this restart file 
 # current date 2020-02-14 07:34:43.478
 # current working dir /pfshome/aanshu/Test/cp2k/acr/MAIN/OPTIMIZATION/OptNLCC_from2GPaCorrect/070_GPA
 # Program compiled at                              Mon Nov 18 19:32:03 IST 2019
 # Program compiled on                                      aryabhatta.local.com
 # Program compiled for                                                    local
 # Source code revision number                                         svn:18464
 &GLOBAL
   PROJECT_NAME ACR
   RUN_TYPE  MD
   WALLTIME 47:45:00
 &END GLOBAL
 &MOTION
   &MD
     ENSEMBLE  NPT_F
     STEPS  60000
     TIMESTEP     0.5
     TEMPERATURE   300
     &BAROSTAT
       PRESSURE  [GPa]    40
       TIMECON    20
     &END BAROSTAT
     &THERMOSTAT
       &NOSE
         TIMECON    20
       &END NOSE
     &END THERMOSTAT
   &END MD
   &PRINT
     &TRAJECTORY  SILENT
       FORMAT  DCD_ALIGNED_CELL
     &END TRAJECTORY
     &CELL  ON
     &END CELL
     &VELOCITIES  ON
     &END VELOCITIES
     &STRESS  ON
     &END STRESS
     &RESTART
      &EACH
        MD 1
      &END EACH
     &END RESTART
     &RESTART_HISTORY  SILENT
       &EACH
         MD  200
       &END EACH
     &END RESTART_HISTORY
   &END PRINT
 &END MOTION
 &FORCE_EVAL
   METHOD  QS
   STRESS_TENSOR  ANALYTICAL
   &DFT
     BASIS_SET_FILE_NAME BASIS_MOLOPT
     POTENTIAL_FILE_NAME NLCC_POTENTIALS
     UKS  T
     MULTIPLICITY  1
     CHARGE  0
     &SCF
       MAX_SCF  700
       EPS_SCF     1.0000000000000001E-09
       SCF_GUESS  RESTART
       &OT  T
         MINIMIZER  CG
         PRECONDITIONER  FULL_ALL
       &END OT
       &OUTER_SCF  T
         EPS_SCF     1.0000000000000001E-09
         MAX_SCF  2
       &END OUTER_SCF
     &END SCF
     &QS
       EPS_DEFAULT     1.0000000000000000E-10
       METHOD  GPW
     &END QS
     &MGRID
       CUTOFF     5.0000000000000000E+02
       REL_CUTOFF     5.0000000000000000E+01
     &END MGRID
     &XC
       DENSITY_CUTOFF     1.0000000000000000E-10
       GRADIENT_CUTOFF     1.0000000000000000E-10
       TAU_CUTOFF     1.0000000000000000E-10
       &XC_FUNCTIONAL  NO_SHORTCUT
         &PBE  T
         &END PBE
       &END XC_FUNCTIONAL
       &VDW_POTENTIAL
         POTENTIAL_TYPE  PAIR_POTENTIAL
         &PAIR_POTENTIAL
           TYPE  DFTD2
           REFERENCE_FUNCTIONAL PBE
         &END PAIR_POTENTIAL
       &END VDW_POTENTIAL
     &END XC
   &END DFT
   &SUBSYS
     &CELL
       A   [bohr]    14.93876978  0.10854626  -0.47252176
       B   [bohr]      -0.02204063  12.63584601   0.22376679
       C   [bohr]    -8.47642044   0.46556277   14.07117381
     &END CELL
     &COORD
C   0.58667948956531E+01     0.41000822112127E+01     0.19516746557840E+01     
C   0.65899871888997E+00     0.36386024062888E+01     0.12257146898541E+02
C   0.51386750792866E+01     -0.20736343969248E+00     0.52433548325154E+01
C   0.16814744119242E+01     0.67829796127304E+01     0.81559896711999E+01
C   0.51176421223962E+01    -0.13284239777313E+01    -0.47852029972598E+00
C   0.17313999098498E+01     0.61584218269892E+01     0.13691800999901E+02
C   0.53633262555229E+01     0.20020467016104E+01     0.67913184921817E+01
C   0.14463840247318E+01     0.45131449911192E+01     0.66388249230936E+01
C   0.30677907809546E+01     0.46542838095466E-01     0.82413333122539E-01
C   0.42855946173577E+01     0.50457664416664E+01     0.13882964219149E+02
C   0.70646840645394E+01     0.37658504314572E+01     0.61413156295943E+01
C  -0.61554819793447E+00     0.31203876903650E+01     0.70673464352912E+01
C   0.57628111307061E+01     0.92678910019658E+01     0.12691365882079E+01
C   0.19669106424714E+01     0.87571922153116E+01     0.12852939030661E+02
C   0.65465270694382E+01     0.78819858587056E+01     0.59459065571505E+01
C   0.50294663076160E+00     0.11513110557723E+02     0.83620960264918E+01
C   0.52081564658797E+01     0.65204184818271E+01    0.47609024368794E+00
C   0.11501638645252E+01     0.14116814766405E+02     0.14045335832850E+02
C   0.64528896865550E+01     0.10322536455129E+02     0.71694068813245E+01
C   0.47918290093574E+00     0.90290632352944E+01     0.70542430356515E+01
C   0.24356845540881E+01     0.68969906776925E+01    0.38501318717391E+00
C   0.31259435641244E+01     0.12596216086789E+02     0.13462731801071E+02
C   0.89377902375571E+01     0.11527243198128E+02     0.69869603395784E+01
C  -0.22360196346335E+01     0.81322027072250E+01     0.70387346119357E+01
H   0.39440409369619E+01     0.37153599061880E+01     0.27335884305020E+01
H   0.15924396857214E+01     0.32703764278681E+01     0.10519523210500E+02
H   0.58742442865345E+01     0.19032710206919E+00     0.33260987224897E+01
H  0.70797558455701E+00     0.63910217445703E+01     0.98729791319492E+01
H   0.62429976784442E+01     0.25693178621397E+01     0.65393454286283E+00
H  -0.12553965860282E+01     0.38472178638605E+01     0.11675174155333E+02
H   0.34423187890036E+01    -0.10922169465016E+01     0.48106594631341E+01
H   0.35862362259257E+01     0.72914925448564E+01     0.86025321295776E+01
H  -0.21470837199053E+01    -0.50821835118649E+00     0.12036920536857E+02
H   0.91838847334891E+01     0.58317797904722E+01     0.13524703571494E+01
H   0.47100774517474E+01     0.20676833258732E+01     0.87814941308343E+01
H   0.22708786623414E+01     0.43180512599243E+01     0.48254845954634E+01
H  -0.73876409594673E+01     0.33128297356016E+01     0.12443742714746E+02
H   0.14425942645373E+02     0.16276759676270E+01     0.13286528989480E+01
H   0.93935251651713E+01     0.63426383162265E+01     0.79991263104967E+01
H  -0.21563224038992E+01    -0.66880866878958E-01     0.55185142955608E+01
H  -0.42830446852891E+01     0.34588152390086E+01     0.11898398538208E+02
H   0.11756830610341E+02     0.25577938497183E+01     0.26939098749581E+01
H   0.63111508270509E+01     0.58867064304738E+01     0.92764672633169E+01
H  0.62398615492034E+00     0.64937745475809E+00     0.43409766865968E+01
H   0.46182588086268E+01     0.94079401193324E+01     0.28978146563688E+01
H   0.32705636359320E+01     0.88451535388802E+01     0.11284102329698E+02
H   0.76892275878234E+01     0.79233330201067E+01     0.43585766113382E+01
H  -0.10208134987730E+01     0.11747300739737E+02     0.96522468669127E+01
H   0.76310044297219E+01     0.95342152846920E+01     0.19405304380085E+01
H  0.16255891370776E+00     0.95804311327864E+01     0.12446753496597E+02
H   0.47311831965608E+01     0.71524661165626E+01     0.51662494648410E+01
H   0.22095716645415E+01     0.11833409590939E+02     0.93239059116979E+01
H  -0.24650057946029E+01     0.67821399649182E+01     0.12612375462725E+02
H   0.81228653623132E+01     0.13246662203284E+02     0.13336111367435E+01
H   0.54530915111329E+01     0.10317735708094E+02     0.90327023179737E+01
H   0.11503350445435E+01     0.92370215079449E+01     0.50750346434139E+01
H  -0.83790503868340E+01     0.97019197497922E+01     0.12543443902541E+02
H   0.13934080028913E+02     0.91395003228460E+01    0.94369290380246E+00
H   0.10881364703501E+02     0.14177934214270E+02     0.88911695093823E+01
H  -0.43986073998532E+01     0.56804149303610E+01     0.49707652541282E+01
H  -0.53596250250688E+01     0.90462408784555E+01     0.11311734403299E+02
H   0.11211819140896E+02     0.98377867009779E+01     0.23779119409612E+01
H   0.82284456339561E+01     0.12683535892282E+02     0.10270655220787E+02
H  -0.13021569400073E+01     0.61366359444666E+01     0.41865375662757E+01
N  -0.56486355945831E+01     0.29119392572842E+01     0.13061222715118E+02
N   0.13388836977470E+02     0.31231213654486E+01     0.17955407227633E+01
N   0.74779663791524E+01     0.58712108835463E+01     0.76185855473836E+01
N  -0.31330655669789E+00     0.65825015941480E+00     0.61397984250784E+01
N  -0.68484250486531E+01     0.84774141830260E+01     0.12368958264556E+02
N   0.11928206373750E+02     0.98081316567240E+01     0.59306959372405E+00
N   0.95511291086359E+01     0.12808382759307E+02     0.88598367018529E+01
N  -0.28714560248377E+01     0.68301346566255E+01     0.49884467766008E+01
O   0.13590638243713E+01     -0.63059207453870E+00     0.18243908624060E+01
O   0.53297296841380E+01     0.50337476426211E+01     0.11763897765487E+02
O   0.80341202598855E+01     0.39335078143202E+01     0.37968887657682E+01
O  -0.24656819790635E+01     0.35946641611973E+01     0.85582696002585E+01
O   0.11339626284737E+01     0.69644758121680E+01     0.23869489377251E+01
O   0.47040437391107E+01     0.12680701465938E+02     0.11645390184800E+02
O   0.10267609543232E+02     0.11687503402685E+02     0.48718733144982E+01
O  -0.32916689968519E+01     0.82680200700751E+01     0.91428456190076E+01
       UNIT bohr
     &END COORD
     &VELOCITY
     0.53576562105801E-03    0.56091692983819E-04    0.50209480628715E-05
    -0.16667673838042E-03     -0.18615930826923E-03     0.17270843815351E-03
    -0.28334265497980E-03     -0.35790531916645E-04     -0.22674864488807E-03
     0.13994151358265E-03     0.19780407634760E-03    0.53211939078844E-04
    -0.80278011477718E-04    -0.79218001482768E-04    -0.18024061947220E-03
     -0.22698169047640E-03    0.79042959999261E-04     -0.82850487941050E-04
    -0.18369743324199E-03    0.47219107250106E-03     0.38295207446433E-04
    0.60451163893305E-04    -0.53730444007782E-04     0.11982232073905E-03
    -0.12131341556412E-04    0.63969520887265E-04    -0.38460744121569E-03
    0.20190791964440E-03     0.29394184235488E-03    0.18976337601022E-03
    0.33433916252463E-03     -0.12044009775424E-03    0.21735740898475E-04
     -0.17933500015170E-03    -0.93398154852347E-04    0.35225444781255E-03
     -0.84419682402875E-04    -0.51710960807472E-04     0.34432237776782E-04
    -0.89899212928127E-04     -0.29507664641419E-04    0.28707032669092E-03
     0.27039047356628E-03     0.10910413866016E-03     0.10104466303503E-03
     -0.33186527455931E-03     0.20591128186212E-03     -0.36164460266806E-03
    -0.18143789672289E-03     0.69976657580360E-04     -0.43543477655320E-03
    0.31996382832502E-03     -0.86626214472328E-04    -0.47490600774035E-04
     0.29935216762280E-03     -0.16940268327479E-03    0.11160531187449E-03
    -0.54744021111382E-03     0.26442474521160E-03     -0.25696360170854E-03
    -0.15592402671300E-03     0.49747558443524E-05    -0.15155832019408E-03
    -0.17102074887824E-03     -0.22513692870068E-03    0.14506256373844E-03
     -0.17790803522648E-03    -0.23290564953505E-04    -0.21073693920905E-03
    0.18319836048527E-03     -0.69033763412559E-04    0.11362414686765E-03
     0.26201171831604E-03    0.89354118427118E-03     0.67648823087986E-06
    -0.13593431916515E-03    -0.53806248254833E-03    0.51329241402508E-03
     0.19079461585072E-02    -0.49931640310264E-03    -0.13128676026744E-02
     0.31253165162807E-03     0.72210014148491E-03     -0.11098985562768E-04
     -0.14316579347788E-02    0.52265555300784E-03    -0.73256328947344E-03
    -0.88238460328970E-03     -0.12331320422195E-02    -0.10724919028134E-02
    0.11430217617982E-02     -0.67062228174516E-03    -0.54183436275942E-03
    -0.21744419574920E-04     0.64291693589338E-03    -0.12188526160822E-03
     -0.34923382661044E-03     -0.77486186468519E-04    0.72935123368149E-03
     -0.71519930251492E-03     0.18856799642656E-04     0.62541729255526E-03
     0.58161300312217E-03     -0.12152026943885E-02    0.30728134751926E-03
    -0.42219279509548E-03    0.29489743250238E-03    0.12660509622815E-03
     0.52679878040980E-03    0.10083567010644E-02     -0.20749911507409E-03
     -0.39053628094154E-03     0.47173366520151E-03    -0.39968278143229E-03
    0.26917355159910E-03     -0.12540535356081E-02    0.45074795052285E-03
     0.24311873291024E-03     -0.23300679977492E-03     -0.14213929029708E-02
     -0.48186928071905E-03    0.71326407574509E-03    0.60736702800875E-03
     -0.33901542010558E-03    -0.69387743549911E-03    -0.64731911147986E-03
    -0.49630211437153E-05     0.29683774600466E-03    0.99169730362332E-03
     -0.49240940367677E-03    -0.61666973831704E-03    0.34028922432649E-03
    0.10372096974227E-02    0.58701098901321E-03    0.18681785619103E-03
     0.92591682549697E-04    -0.60857589630199E-03     -0.32741642186499E-03
     -0.74507160702873E-03     -0.12531257007098E-02    0.12955245785376E-02
     -0.10094328160483E-02     0.19493875571202E-03    0.83276717156861E-03
     -0.41193313275728E-03     0.41142004019375E-03    0.39015442370308E-03
    0.32845499070839E-04    -0.42247042414214E-03     -0.25691091720736E-03
    0.48648326395204E-04    -0.17773147459437E-04     -0.28118043838527E-04
    0.52504304180550E-03    0.12424555235097E-02    -0.48573993747609E-03
     -0.10533037874495E-02    -0.33005753400213E-03     0.20685970201124E-03
    0.85582522389030E-04     0.35291512734709E-03     -0.57289559229946E-03
     0.27183410856407E-04    0.53016289375848E-03     0.24263741726110E-03
    0.16655021989230E-04     -0.44894161815535E-04     0.17600700372224E-02
    0.95367574871746E-03    -0.52305683411442E-03    0.25589099999862E-04
    -0.22980538818929E-03     -0.12844506398991E-03    0.15994630895305E-02
     0.13635459995579E-03     -0.14591821048407E-02     -0.55176924497181E-03
     -0.11023194275022E-03    -0.11572905642017E-02     0.15937331206146E-02
    0.99035710401969E-03    -0.17001001712820E-03    0.30559581530048E-03
    0.45552250950711E-04     -0.45011351563086E-03    -0.86163988812487E-03
     0.43494347726045E-03    0.22728720702602E-03    -0.10185663054394E-02
    -0.11138720914007E-02     -0.65293379900715E-03     -0.94388639718373E-03
    -0.17928185740979E-03    -0.24547342364058E-04     0.16170253717021E-04
    -0.45290952210325E-04     -0.26864009684169E-04     0.71038008152041E-04
    -0.16353755787494E-03    -0.18368737259620E-04     0.13776930094851E-03
    0.23982025769218E-03    -0.22613476034643E-03    -0.69810428230095E-04
    0.33432502024921E-03    0.38101979250070E-03     -0.23412885141844E-03
    -0.83645299929622E-04     0.57302319175163E-04     0.29147757890052E-03
    0.11375577362706E-03     0.21716668713766E-03    0.24942273214710E-03
    -0.30969504347975E-03     0.17714327742143E-03     0.94978523580523E-04
    0.35902077708818E-04    -0.24004044222723E-03    0.13390146169283E-03
     -0.33490820884068E-03    0.77543920424769E-04     -0.14392700780661E-03
     -0.13272119757549E-04     0.98363146882770E-04    -0.32681636211321E-03
     0.32430533239382E-03    -0.10680743469788E-03    0.22560096059003E-04
    0.18248812403817E-03    -0.12529240806560E-03    0.38587050339725E-04
    -0.51764547317497E-04     -0.87840176975534E-04     0.14283379428326E-03
     0.16051214965282E-03     -0.59784353425053E-05    0.80520580970589E-04
     0.21868769300669E-03     -0.20544204723188E-03    -0.96376267797089E-04
     &END VELOCITY
     &KIND H
       BASIS_SET DZVP-MOLOPT-SR-GTH
       POTENTIAL GTH-NLCC-PBE-q1
     &END KIND
     &KIND C
       BASIS_SET DZVP-MOLOPT-SR-GTH
       POTENTIAL GTH-NLCC-PBE-q4
     &END KIND
     &KIND O
       BASIS_SET DZVP-MOLOPT-SR-GTH
       POTENTIAL GTH-NLCC-PBE-q6
     &END KIND
     &KIND N
       BASIS_SET DZVP-MOLOPT-SR-GTH
       POTENTIAL GTH-NLCC-PBE-q5
     &END KIND
   &END SUBSYS
   &PRINT
     &FORCES  ON
     &END FORCES
     &STRESS_TENSOR  ON
     &END STRESS_TENSOR
   &END PRINT
 &END FORCE_EVAL
