 # Version information for this restart file 
 # current date 2020-02-14 07:34:43.478
 # current working dir /pfshome/aanshu/Test/cp2k/acr/MAIN/OPTIMIZATION/OptNLCC_from2GPaCorrect/070_GPA
 # Program compiled at                              Mon Nov 18 19:32:03 IST 2019
 # Program compiled on                                      aryabhatta.local.com
 # Program compiled for                                                    local
 # Source code revision number                                         svn:18464
 &GLOBAL
   PROJECT_NAME ACR
   RUN_TYPE  MD
 &END GLOBAL
 &MOTION
   &MD
     ENSEMBLE  NPT_F
     STEPS  10000
     TIMESTEP     0.5
     TEMPERATURE   300
     &BAROSTAT
       PRESSURE  [GPa]    40
       TIMECON    20
     &END BAROSTAT
     &THERMOSTAT
       &NOSE
         TIMECON    20
       &END NOSE
     &END THERMOSTAT
   &END MD
   &PRINT
     &TRAJECTORY  SILENT
       FORMAT  DCD_ALIGNED_CELL
     &END TRAJECTORY
     &CELL  ON
     &END CELL
     &VELOCITIES  ON
     &END VELOCITIES
     &STRESS  ON
     &END STRESS
     &RESTART
      &EACH
        MD 1
      &END EACH
     &END RESTART
     &RESTART_HISTORY  SILENT
       &EACH
         MD  200
       &END EACH
     &END RESTART_HISTORY
   &END PRINT
 &END MOTION
 &FORCE_EVAL
   METHOD  QS
   STRESS_TENSOR  ANALYTICAL
   &DFT
     BASIS_SET_FILE_NAME BASIS_MOLOPT
     POTENTIAL_FILE_NAME NLCC_POTENTIALS
     UKS  T
     MULTIPLICITY  1
     CHARGE  0
     &SCF
       MAX_SCF  700
       EPS_SCF     1.0000000000000001E-09
       SCF_GUESS  RESTART
       &OT  T
         MINIMIZER  CG
         PRECONDITIONER  FULL_ALL
       &END OT
       &OUTER_SCF  T
         EPS_SCF     1.0000000000000001E-09
         MAX_SCF  2
       &END OUTER_SCF
     &END SCF
     &QS
       EPS_DEFAULT     1.0000000000000000E-10
       METHOD  GPW
     &END QS
     &MGRID
       CUTOFF     5.0000000000000000E+02
       REL_CUTOFF     5.0000000000000000E+01
     &END MGRID
     &XC
       DENSITY_CUTOFF     1.0000000000000000E-10
       GRADIENT_CUTOFF     1.0000000000000000E-10
       TAU_CUTOFF     1.0000000000000000E-10
       &XC_FUNCTIONAL  NO_SHORTCUT
         &PBE  T
         &END PBE
       &END XC_FUNCTIONAL
       &VDW_POTENTIAL
         POTENTIAL_TYPE  PAIR_POTENTIAL
         &PAIR_POTENTIAL
           TYPE  DFTD2
           REFERENCE_FUNCTIONAL PBE
         &END PAIR_POTENTIAL
       &END VDW_POTENTIAL
     &END XC
   &END DFT
   &SUBSYS
     &CELL
       A   [bohr]    13.28738889  -0.18757557  -1.02352947
       B   [bohr]      0.42619868  15.72810881   -0.06791263
       C   [bohr]    -8.42817545   -0.07493058   13.50945489
     &END CELL
     &COORD
C   0.44890251665269E+01     0.47976449540574E+01     0.86487104017462E+00     
C   0.54332980594159E+00     0.22493546436136E+01     0.11585980138931E+02
C   0.48360558820331E+01     0.68917400014992E+00     0.48245917068476E+01
C   0.43880360256516E+00     0.63069406327997E+01     0.74450993298225E+01
C   0.43036847904082E+01    -0.10645732362034E+01    -0.58059134160150E+00
C   0.92656694043560E+00     0.81233348006045E+01     0.12990263815502E+02
C   0.50190783834100E+01     0.27236808980812E+01     0.63081208386119E+01
C   0.31797283463938E+00     0.42493049204229E+01     0.61214962380071E+01
C   0.25164772850160E+01     0.83063403127369E+00     -0.16113323339321E+00
C   0.27706191168699E+01     0.64105040705083E+01     0.12447650856576E+02
C   0.68594259489753E+01     0.44756452326040E+01     0.56133749701432E+01
C  -0.17461676484529E+01     0.24370258524530E+01     0.66891749861465E+01
C   0.48186443636429E+01     0.12791886286544E+02     0.10775070912511E+01
C   0.73759339210168E+00     0.10141194494410E+02     0.11567820117344E+02
C   0.50958178318900E+01     0.89048663761574E+01     0.48440958587891E+01
C   0.53648914703455E+00     0.13971200913425E+02     0.75359452256683E+01
C   0.46533787539579E+01     0.68062418637673E+01    -0.63864105438869E+00
C   0.10371606561540E+01     0.15990611486698E+02     0.13064734465438E+02
C   0.50479135774669E+01     0.10923920314863E+02     0.63063757066370E+01
C   0.29387751975157E+00     0.12051923794645E+02     0.60177988572461E+01
C   0.27365372608595E+01     0.87359416757337E+01    -0.66241439398937E-01
C   0.28358594078572E+01     0.14136501887734E+02     0.12393406339213E+02
C   0.71734923588515E+01     0.12521772454023E+02     0.59073387945297E+01
C  -0.17223194689811E+01     0.10310406357510E+02     0.65430663244471E+01
H   0.33976147440428E+01     0.47548337102435E+01     0.25017658994841E+01
H   0.18510899231614E+01     0.21697195188277E+01     0.99105186719182E+01
H   0.60530995124311E+01     0.70329828692712E+00     0.33253235306047E+01
H  -0.91539731904251E+00     0.64934393010922E+01     0.89799312020352E+01
H   0.55919520672876E+01     0.31329311249962E+01     0.45908810220955E+00
H  -0.26629228058732E+00     0.40765805286643E+01     0.12020304552228E+02
H   0.34138403343239E+01    -0.87058864537008E+00     0.50882609395867E+01
H   0.16250040254089E+01     0.79443896373790E+01     0.71830116752010E+01
H  -0.26512616017626E+01    -0.11067245694323E+01     0.11500713460962E+02
H   0.81211094738184E+01     0.80175257771304E+01     0.10387714410667E+01
H   0.36041098208213E+01     0.30983644516831E+01     0.77925609390561E+01
H   0.16153733539436E+01     0.37758125637218E+01     0.45550310069748E+01
H  -0.79848275479203E+01     0.35102160441576E+01     0.11991306683754E+02
H   0.13104329662007E+02     0.34769027945272E+01     0.47987771761419E+00
H   0.86294563577953E+01     0.75658968346427E+01     0.72009344260024E+01
H  -0.34268238910320E+01    -0.91955586999300E+00     0.50092059590127E+01
H  -0.51318845617312E+01     0.28420920310844E+01     0.10312188034126E+02
H   0.10571387080428E+02     0.46218669814116E+01     0.21963490218314E+01
H   0.60331651737085E+01     0.63728967395661E+01     0.87027296839194E+01
H  -0.11210927955847E+01     0.61816609407313E+00     0.32995176002850E+01
H   0.34489403024435E+01     0.12501623526368E+02     0.24881982542066E+01
H   0.21337168560870E+01     0.10422312253352E+02     0.10176481540758E+02
H   0.67576748831090E+01     0.88129846504334E+01     0.37775980153242E+01
H  -0.64186355550357E+00     0.14479974911998E+02     0.90355579043479E+01
H   0.60740181118565E+01     0.11231630364881E+02     0.80216364569446E+00
H  -0.51498270230368E+00     0.11608855298640E+02     0.11864809190170E+02
H   0.39579387124327E+01     0.72301311302236E+01     0.51169844495415E+01
H   0.21905500023553E+01     0.15188071127646E+02     0.72886909895372E+01
H  -0.27276054210592E+01     0.70365932297858E+01     0.11321988908224E+02
H   0.85046104539572E+01     0.15870110231611E+02     0.12605103685995E+01
H   0.38350687307573E+01     0.11453327678817E+02     0.78324443428307E+01
H   0.15298721459638E+01     0.11775452694532E+02     0.44113894644882E+01
H  -0.71367541792287E+01     0.11903795702674E+02     0.12105599492331E+02
H   0.13175023528185E+02     0.11108994609295E+02    0.34582435384849E+00
H   0.92569609514789E+01     0.15340669500670E+02     0.72338003113954E+01
H  -0.33620426233664E+01     0.72026115288533E+01     0.49427113771238E+01
H  -0.50401930523340E+01     0.10513844326631E+02     0.10256479456730E+02
H   0.10594713654946E+02     0.12122174768196E+02     0.19503334125847E+01
H   0.67565729015833E+01     0.14516142003815E+02     0.91987735279463E+01
H  -0.83814030571923E+00     0.84532541553293E+01     0.35526632027829E+01
N  -0.64533633819063E+01     0.24025588835130E+01     0.11575927875041E+02
N   0.11890435930001E+02     0.48679127320405E+01     0.69487798310027E+00
N   0.74679828296044E+01     0.60912888463466E+01     0.73594530377562E+01
N  -0.22575126763371E+01     0.80961989773016E+00     0.48769182748392E+01
N  -0.63248308022471E+01     0.10176152347634E+02     0.11600230844951E+02
N   0.11993411053644E+02     0.12592086219539E+02     0.71058317691217E+00
N   0.79635141367645E+01     0.14041725259123E+02     0.76984827254168E+01
N  -0.23346699708370E+01     0.87978244497522E+01     0.46522716966806E+01
O   0.14790926884514E+01     0.96866432575446E+00     0.20555929344672E+01
O   0.36470162943787E+01     0.63511278832079E+01     0.10234731515031E+02
O   0.80652869310502E+01     0.45803215555977E+01     0.35753791204342E+01
O  -0.26060119634084E+01     0.23617719320653E+01     0.89260611747955E+01
O   0.15064641443396E+01     0.88521275851167E+01     0.19237062974719E+01
O   0.41499994119010E+01     0.14094952035585E+02     0.10327258604823E+02
O   0.83542902297310E+01     0.12452304188329E+02     0.37843775904849E+01
O  -0.25914125051726E+01     0.10149273209006E+02     0.88030368774057E+01
       UNIT bohr
     &END COORD
     &VELOCITY
     0.10509752137595E-03    -0.13055991509753E-03    -0.77415973729086E-04
    0.42206705424062E-04     -0.10841582045283E-04     0.10391002327187E-04
    -0.39577023713393E-03     -0.27047549605382E-03     0.76116339245797E-04
     0.97168117703397E-04     -0.15130138118129E-03    -0.31502753758260E-04
    0.20216914294421E-04    -0.22196135092217E-03    -0.35005176438906E-03
     -0.22971896084897E-03    -0.15154046515814E-03     -0.17117306478402E-03
    0.53116034680994E-03    0.21459754476969E-03     0.81292499383773E-04
    -0.21842957283811E-03    0.16645628234861E-03     -0.94836030662895E-04
    0.26095147651807E-03    -0.39122772991849E-03    0.14914942317683E-03
    -0.18607188702987E-03     -0.68251641857498E-05    0.25157309701057E-03
    0.18020306348266E-03     -0.29117931242537E-03    -0.51858077313684E-03
     -0.54364239055869E-03    0.28355288998601E-03    0.21380960581340E-03
     -0.34912045526027E-03    -0.94588788120736E-04     -0.15337349143309E-03
    0.22472525311358E-03     -0.88523151446649E-04    -0.90023871366853E-05
     0.32294841860341E-03     -0.78388875536014E-04     -0.12135998889921E-04
     -0.13827533224789E-03     -0.44024077519731E-03     0.44594085450010E-05
    -0.12144231252892E-04     0.20774493848093E-03     0.90062606512765E-05
    0.31437800253202E-03     -0.35098543374703E-04    -0.26888202032886E-04
     0.18857840542601E-03     -0.10003620788885E-03    0.22814709694061E-04
    -0.20583166800380E-03     0.55229113609388E-04     -0.15717868825733E-03
    0.10962081068245E-03     0.27990436770290E-03    0.14989859597433E-03
    0.17989259184047E-03     -0.15957318988415E-03    0.57293632314169E-04
     -0.41016824314284E-03    -0.21245669384049E-04    0.23831359513316E-03
    0.30022558009009E-03     -0.17505132219434E-05    -0.19350908310670E-03
     0.48929384841413E-03    -0.85841396619531E-03     -0.39883642954691E-03
    0.18415788118297E-03    0.98037138822890E-04    0.29499253586960E-03
     0.26899306046236E-03    0.58476437279738E-03    -0.57538280013801E-03
     0.74876189573774E-03     -0.11294344725422E-02     0.33541937932589E-03
     0.19566820476825E-05    0.43007181260377E-03    0.36867231864598E-03
    0.75314685327707E-03     -0.13398826099617E-02    0.83308297062539E-03
    0.21926252713259E-03     -0.22145482001004E-04    -0.17995747893299E-03
    0.79721339166298E-03     0.79210332737750E-04    0.32035867499451E-03
     -0.96462443028879E-04     -0.37982590694898E-03    -0.36753095543858E-04
     0.35890494766151E-03     0.14613634400444E-02     0.36411016929728E-03
     -0.67799402230717E-03     -0.28265882169649E-03    -0.64746891724137E-03
    0.79572884601536E-03    -0.47774617499725E-03    0.66361665764472E-03
     0.25848159780578E-03    -0.12936521476341E-02     -0.63426184433952E-03
     -0.25838443073574E-03     0.72340338296879E-03    0.47956101407975E-03
    0.89274167499969E-03     -0.12275097654134E-03    0.56987227985212E-03
     -0.75430343266501E-03     -0.17445459711262E-03     -0.64493836828927E-03
     -0.49501776576877E-04    0.25953721091502E-03    0.18567531052057E-02
     -0.22870670522705E-03    -0.43722840761302E-03    0.14761770724162E-02
    -0.13003467831736E-02     -0.12689882646703E-03    -0.10824548982183E-03
     -0.66199969033436E-03    0.11550027434417E-02    0.90160279871863E-03
    -0.38182181160533E-03    0.44457050224755E-03    0.34000681354923E-03
     -0.10354374005755E-02    0.14141859036905E-02     0.47597759048066E-03
     -0.28766607224326E-03     0.75702011691236E-03    0.45229043226329E-03
     0.59163407290689E-03     0.39402165345180E-03    -0.26192773421153E-04
     -0.20052728829631E-03     0.34696735279451E-03    -0.13062261279178E-03
    0.31207005309417E-04    -0.28530907377203E-03     0.26059006655979E-03
    0.37943280477033E-03    0.44000891861473E-03     0.12152642513062E-02
    0.51524688402531E-03    -0.69390407504057E-03    0.28464507820805E-03
     0.98760976290132E-03    0.37359635629158E-03     -0.93708684946875E-03
    -0.47278336796031E-03     -0.49113049631087E-03     -0.21325792501053E-04
     0.87904111208462E-03    0.11062261656263E-02     -0.30840247401206E-03
    0.71409106470017E-04     -0.32632119628283E-06     -0.86794422479785E-03
    -0.72426437485341E-03    0.41125913688518E-03    -0.20198721735589E-03
    0.68407862173856E-03     0.56777782526319E-05    -0.83544040619956E-03
     0.57298021086267E-03     0.38603095310504E-03     -0.13308397243573E-02
     0.66194773546287E-03    -0.76123987804381E-03     0.87731884509974E-04
    0.36428917019685E-03    0.60160932926697E-03    -0.61101353420069E-03
    -0.12451191811729E-02     0.64167451704771E-03    -0.59358141028348E-03
     0.26596541593330E-03    -0.41133888826211E-03    0.10704785644340E-02
    0.32094512333474E-03     -0.75858679069556E-03     0.47916292133239E-03
    -0.17222028968993E-03    -0.44117981421845E-04     -0.10507575463889E-04
    -0.89753806530855E-04     -0.14354179988491E-03     0.26698898772036E-03
    0.40717740938335E-04    0.19958964418585E-03     -0.18132864985060E-03
    0.76871398372946E-06    0.30240403961389E-03    -0.24209096606690E-03
    -0.19670004462933E-03    0.70536273803744E-04     0.10355504304815E-03
    -0.13596527026555E-03     -0.12511237133030E-03     0.35033286255612E-03
    -0.80917314995782E-05     0.32197823222480E-04    0.10343839716427E-03
    0.20832657730262E-03     0.15533432840344E-03     -0.13134372960912E-03
    -0.96541302672505E-06    0.80242814207025E-04    0.45177762391966E-04
     0.17466401943906E-03    0.30678634951202E-03     -0.23638385283875E-03
     0.30466035976279E-03     0.23824600673763E-03    0.34147564209550E-03
     -0.33609424205561E-04    -0.64835282616630E-04    -0.18031798490937E-03
    -0.34524777257075E-04    0.22740845555559E-03    0.81343968931564E-04
    -0.32553451497307E-03     0.43806327923652E-04     0.14935386872028E-03
     -0.80642276850873E-04     -0.32989897569933E-03    -0.17836333844495E-03
     -0.68839264209205E-04     0.56063372617357E-04    -0.10280767873247E-03
     &END VELOCITY
     &KIND H
       BASIS_SET DZVP-MOLOPT-SR-GTH
       POTENTIAL GTH-NLCC-PBE-q1
     &END KIND
     &KIND C
       BASIS_SET DZVP-MOLOPT-SR-GTH
       POTENTIAL GTH-NLCC-PBE-q4
     &END KIND
     &KIND O
       BASIS_SET DZVP-MOLOPT-SR-GTH
       POTENTIAL GTH-NLCC-PBE-q6
     &END KIND
     &KIND N
       BASIS_SET DZVP-MOLOPT-SR-GTH
       POTENTIAL GTH-NLCC-PBE-q5
     &END KIND
   &END SUBSYS
   &PRINT
     &FORCES  ON
     &END FORCES
     &STRESS_TENSOR  ON
     &END STRESS_TENSOR
   &END PRINT
 &END FORCE_EVAL
