
&control
    title = 'Acrylamide Molecule',
    calculation = 'vc-cp',
    restart_mode = 'restart',
    ndr = 57,
    ndw = 58,
    dt    = 5.0d0,
    nstep  = 100000,
    iprint = 5,
    isave  = 100,
    etot_conv_thr = 1.0D-8,
    forc_conv_thr = 1.0D-5,
    ekin_conv_thr = 1.0D-8,
    tstress = .true.,
    tprnfor = .true.,
    prefix = 'acr',
    outdir = '/home1/ashwini/scratch/cpmd/300K_CPMD/cpmd_07/',
    pseudo_dir = '/home1/ashwini/pseud_acr/',
    verbosity = 'medium',
    max_seconds = 21100,
/
&system
    ibrav = 0,
    celldm(1) = 15.54772162,
    ntyp = 4,
    nat  = 80,
    ecutwfc = 62,
    ecutrho = 480,
    occupations="fixed",
    vdw_corr= 'grimme-d2'
    nr1b = 30,
    nr2b = 30,
    nr3b = 30,
    ecfixed = 80,
    qcutz = 150,
    q2sigma = 2.0, 
/
&electrons
    electron_dynamics = 'sd',
    emass = 200.d0,
    emass_cutoff = 1.d0,
    electron_velocities = 'default',
    electron_maxstep = 2000,
    conv_thr = 1.0D-10,
    electron_temperature = 'not_controlled',
/
&ions
    ion_dynamics = 'none',
    ion_temperature = 'nose',
    tempw= 300.0,
    fnosep = 55.0,
    ion_velocities = 'default',
    ion_positions = 'default',
/
&cell
    cell_dynamics = 'none',
    cell_parameters = 'default'
    cell_velocities = 'zero'
    press = 0.0,
/
CELL_PARAMETERS (alat)
   0.970921658  -0.000032809  -0.026374098
  -0.000040244   1.397434780   0.000032311
  -0.603201615   0.000038376   1.007405622

ATOMIC_SPECIES
 C 12.0 c_pbe_v1.2.uspp.F.UPF
 H 1.0 H.pbe-rrkjus_psl.0.1.UPF
 N 14.0 N.pbe.theos.UPF
 O 16.0 o_pbe_v1.2.uspp.F.UPF

ATOMIC_POSITIONS (angstrom)
C        2.375794888   4.724808043   0.922730812
C        0.746418338   0.840364112   7.128477703
C        3.266786721   1.944671732   3.007819573
C       -0.144141638   3.620195634   5.042851830
C        2.325106394   0.117446168  -0.012396847
C        0.797315073   5.447393862   8.063299436
C        3.317531936   2.897385095   3.942861664
C       -0.194971763   2.667375386   4.107932784
C        1.360470130   1.241765633   0.074690622
C        1.761931564   4.323048206   7.976236977
C        4.282097221   4.021776372   3.855862741
C       -1.159661112   1.543096387   4.195039531
N       -3.712239904   2.069798044   7.263829399
N        6.834694921   3.495094054   0.787158621
N        4.314504862   4.849742620   4.907488486
N       -1.192215108   0.715104446   3.143440238
O        0.624218907   1.410774696   1.081547071
O        2.498095413   4.153987158   6.969328241
O        5.018325325   4.190907690   2.849007609
O       -1.895841391   1.374095138   5.201950325
H        1.694489338   4.749810377   1.775088037
H        1.427770353   0.815446692   6.276146637
H        3.948113723   1.969759663   2.155482768
H       -0.825481886   3.595292193   5.895181851
H        3.083496867   3.899992616   0.872750584
H        0.038731911   1.665176913   7.178455826
H        2.559132336   1.119820908   3.057717291
H        0.563613368   4.444955933   4.992862789
H       -2.052010952   0.102955715   7.361036252
H        5.174490479   5.461977456   0.689894865
H        2.654423261   2.882818372   4.810145036
H        0.468160863   2.681776333   3.240667507
H       -4.385416684   2.853780834   7.259318506
H        7.507849226   2.711063578   0.791655880
H        4.987591148   5.633821073   4.911994005
H       -1.865356005  -0.068941977   3.139020905
H       -3.059242794   1.949666202   6.483134355
H        6.181708757   3.615310990   1.567840611
H        3.661451166   4.729563668   5.688126875
H       -0.539162452   0.835169014   2.362798715
C        2.375874391  10.284581897   0.922574784
C        0.746508094   6.400142260   7.128313375
C        3.266442870   7.504756453   3.008205625
C       -0.144484518   9.180275268   5.043227809
C        2.324984146   5.677557491  -0.012241430
C        0.797193904  11.007512856   8.063444630
C        3.317276619   8.457577634   3.943122672
C       -0.195231379   8.227563967   4.108190249
C        1.360374082   6.801909058   0.074809503
C        1.761827898   9.883183812   7.976366495
C        4.281957809   9.581845534   3.856008506
C       -1.159799373   7.103178906   4.195188036
N       -3.712397475   7.629866441   7.263899806
N        6.834529957   9.055164569   0.787226787
N        4.314521532  10.409855989   4.907612978
N       -1.192202595   6.275207402   3.143563651
O        0.624197986   6.970965077   1.081724413
O        2.498077655   9.714180074   6.969500518
O        5.018140622   9.750862215   2.849097828
O       -1.896032537   6.934046882   5.202042234
H        1.694524088  10.309502619   1.774903071
H        1.427804589   6.375140558   6.275955648
H        3.947778809   7.529659027   2.155871564
H       -0.825809254   9.155197190   5.895568893
H        3.083566234   9.459779053   0.872594295
H        0.038812603   7.224958152   7.178293293
H        2.558697086   6.679994807   3.058189204
H        0.563169249  10.005124395   4.993338665
H       -2.052191182   5.662984920   7.361156829
H        5.174311595  11.022003303   0.690015527
H        2.654138503   8.443167513   4.810388702
H        0.467884865   8.242130299   3.240908277
H       -4.385548151   8.413893030   7.259393567
H        7.507722436   8.271172834   0.791734665
H        4.987643261  11.193885792   4.912030456
H       -1.865295000   5.491137181   3.139058843
H       -3.059405938   7.509649283   6.483207448
H        6.181546379   9.175293496   1.567917862
H        3.661459308  10.289782064   5.688256136
H       -0.539153476   6.395390446   2.362926675

